Nb of jobs, Nb of Machines, Time seed, Machine seed, Upper bound, Lower bound
8,8,-1,-1,-1,-1
Times
84,24,33,67,63,84,16,21
12,93,41,72,91,86,80,76
56,31,21,82,63,13,58,34
30,27,83,61,65,78,71,2
4,28,59,75,91,1,14,83
36,91,65,18,9,5,43,26
96,52,66,49,54,16,41,43
85,78,34,38,72,4,2,95
Machines
2,5,4,8,1,6,3,7
5,6,3,7,2,1,8,4
2,6,5,1,4,3,7,8
6,4,8,1,3,7,2,5
6,3,2,7,5,8,4,1
7,6,1,8,5,2,4,3
8,6,3,7,5,4,1,2
8,1,4,7,6,2,5,3
